19 53 
81 30 
24 57 
19 80 
30 90 
65 32 
82 98 
31 6 
7 20 
35 4 
42 12 
99 32 
24 30 
18 80 
77 69 
12 48 
22 93 
79 98 
3 50 
79 85 
92 96 
69 75 
94 0 
33 53 
20 68 
9 62 
81 8 
47 5 
91 65 
86 20 
86 98 
69 9 
43 0 
59 98 
2 90 
83 95 
86 52 
70 32 
4 3 
85 77 
23 47 
91 4 
55 90 
62 98 
55 0 
71 94 
50 40 
55 45 
40 14 
44 94 
